objective value:                                12709
x_1                                                 1 	(obj:502)
x_2                                                 1 	(obj:485)
x_3                                                 1 	(obj:258)
x_7                                                 1 	(obj:27)
x_12                                                1 	(obj:414)
x_16                                                1 	(obj:372)
x_19                                                1 	(obj:268)
x_21                                                1 	(obj:491)
x_23                                                1 	(obj:417)
x_24                                                1 	(obj:360)
x_27                                                1 	(obj:385)
x_31                                                1 	(obj:137)
x_33                                                1 	(obj:487)
x_35                                                1 	(obj:229)
x_36                                                1 	(obj:128)
x_41                                                1 	(obj:152)
x_43                                                1 	(obj:435)
x_51                                                1 	(obj:192)
x_55                                                1 	(obj:420)
x_56                                                1 	(obj:399)
x_60                                                1 	(obj:161)
x_62                                                1 	(obj:513)
x_69                                                1 	(obj:305)
x_72                                                1 	(obj:450)
x_75                                                1 	(obj:402)
x_77                                                1 	(obj:336)
x_80                                                1 	(obj:457)
x_83                                                1 	(obj:398)
x_84                                                1 	(obj:461)
x_88                                                1 	(obj:378)
x_89                                                1 	(obj:487)
x_90                                                1 	(obj:32)
x_94                                                1 	(obj:418)
x_95                                                1 	(obj:377)
x_96                                                1 	(obj:502)
x_97                                                1 	(obj:474)
y_0                                                 1 	(obj:0)
y_1                                                 1 	(obj:0)
y_2                                                 1 	(obj:0)
y_3                                                 1 	(obj:0)
y_4                                                 1 	(obj:0)
y_5                                                 1 	(obj:0)
y_6                                                 1 	(obj:0)
y_8                                                 1 	(obj:0)
y_9                                                 1 	(obj:0)
y_10                                                1 	(obj:0)
y_11                                                1 	(obj:0)
y_12                                                1 	(obj:0)
y_13                                                1 	(obj:0)
y_14                                                1 	(obj:0)
y_15                                                1 	(obj:0)
y_16                                                1 	(obj:0)
y_17                                                1 	(obj:0)
y_18                                                1 	(obj:0)
y_19                                                1 	(obj:0)
y_20                                                1 	(obj:0)
y_21                                                1 	(obj:0)
y_22                                                1 	(obj:0)
y_23                                                1 	(obj:0)
y_24                                                1 	(obj:0)
y_27                                                1 	(obj:0)
y_28                                                1 	(obj:0)
y_30                                                1 	(obj:0)
y_31                                                1 	(obj:0)
y_32                                                1 	(obj:0)
y_34                                                1 	(obj:0)
y_35                                                1 	(obj:0)
y_36                                                1 	(obj:0)
y_37                                                1 	(obj:0)
y_38                                                1 	(obj:0)
y_39                                                1 	(obj:0)
y_40                                                1 	(obj:0)
y_45                                                1 	(obj:0)
y_46                                                1 	(obj:0)
y_47                                                1 	(obj:0)
y_48                                                1 	(obj:0)
y_49                                                1 	(obj:0)
y_50                                                1 	(obj:0)
y_51                                                1 	(obj:0)
y_52                                                1 	(obj:0)
y_53                                                1 	(obj:0)
y_54                                                1 	(obj:0)
y_55                                                1 	(obj:0)
y_56                                                1 	(obj:0)
y_57                                                1 	(obj:0)
y_58                                                1 	(obj:0)
y_59                                                1 	(obj:0)
y_60                                                1 	(obj:0)
y_62                                                1 	(obj:0)
y_63                                                1 	(obj:0)
y_64                                                1 	(obj:0)
y_66                                                1 	(obj:0)
y_67                                                1 	(obj:0)
y_68                                                1 	(obj:0)
y_69                                                1 	(obj:0)
y_70                                                1 	(obj:0)
y_71                                                1 	(obj:0)
y_72                                                1 	(obj:0)
y_73                                                1 	(obj:0)
y_74                                                1 	(obj:0)
y_75                                                1 	(obj:0)
y_77                                                1 	(obj:0)
y_78                                                1 	(obj:0)
y_79                                                1 	(obj:0)
y_80                                                1 	(obj:0)
y_82                                                1 	(obj:0)
y_83                                                1 	(obj:0)
y_84                                                1 	(obj:0)
y_85                                                1 	(obj:0)
y_87                                                1 	(obj:0)
y_88                                                1 	(obj:0)
y_90                                                1 	(obj:0)
y_91                                                1 	(obj:0)
y_93                                                1 	(obj:0)
y_94                                                1 	(obj:0)
y_95                                                1 	(obj:0)
y_97                                                1 	(obj:0)
y_99                                                1 	(obj:0)
